NAME : portgen-20-39
COMMENT : portgen N=20, seed=39
TYPE : TSP
DIMENSION : 20
EDGE_WEIGHT_TYPE : EUC_2D
NODE_COORD_SECTION
1 619678 595351
2 166404 772327
3 657860 879464
4 411123 228467
5 774810 745661
6 149681 396872
7 504680 133977
8 163657 640033
9 192210 740681
10 493301 349417
11 127086 129350
12 764140 678550
13 756821 67639
14 105553 202473
15 707113 930454
16 13735 180468
17 363448 8843
18 469481 131826
19 957124 451328
20 616558 317101
